NAME : ../File/prFile/tspFile/tsp_file38.tsp.444.tour
COMMENT : Length = 444
COMMENT : Found by LKH-3 [Keld Helsgaun] Wed Jun 14 16:16:50 2023
TYPE : TOUR
DIMENSION : 30
TOUR_SECTION
1
6
16
23
11
21
24
14
13
9
30
19
28
8
29
26
3
15
20
5
25
2
27
4
7
22
18
17
12
10
-1
EOF
